Route 1: 0 44 82 80 79 33 28 30 88 1 36 68 93 0
Route 2: 0 69 10 83 49 19 4 8 66 0
Route 3: 0 96 34 15 27 67 62 76 40 52 16 58 94 0
Route 4: 0 81 6 53 70 12 56 90 29 0
Route 5: 0 48 32 71 92 54 25 14 59 72 38 95 0
Route 6: 0 84 5 47 17 21 61 64 0
Route 7: 0 22 73 63 13 99 74 87 97 46 31 0
Route 8: 0 85 51 50 26 91 75 0
Route 9: 0 77 7 11 24 18 57 0
Route 10: 0 45 3 37 55 98 39 86 89 9 0
Route 11: 0 100 41 35 20 42 23 2 0
Route 12: 0 65 60 78 43 0
